NAME : STSP_125-2over3.1417.tour
COMMENT : Length = 1417
COMMENT : Found by LKH-3 [Keld Helsgaun]
TYPE : TOUR
DIMENSION : 83
TOUR_SECTION
111
66
45
107
34
60
6
42
52
30
49
30
124
47
62
9
62
58
92
20
109
32
25
85
67
82
43
105
35
100
33
22
2
84
10
119
96
57
13
16
59
19
29
65
18
80
64
77
41
106
41
44
55
94
81
94
113
74
76
46
8
36
120
115
88
23
70
23
88
115
53
7
91
78
48
50
112
50
40
90
14
90
40
12
71
68
71
101
61
1
5
123
69
3
31
89
38
86
63
37
54
27
104
99
73
116
51
79
72
28
4
15
21
75
98
114
122
17
122
-1
EOF
